p cnf 50 10
x -3 4 -5 6 -8 -9 10 11 -12 14 16 19 -23 25 26 30 31 -34 35 -38 -39 -40 -41 -45 47 -48 -49 50 0
x 1 -3 -6 10 -11 12 13 14 -16 22 -23 -24 -25 -26 -27 28 -30 -32 33 -34 -35 36 39 42 -43 -44 -45 -46 47 -49 0
x 1 2 -3 4 5 -6 -10 12 13 -15 18 -20 25 -26 -28 -30 -31 32 -33 35 37 -39 -43 -47 49 0
x 2 -4 9 -10 -14 15 -18 20 26 -28 35 36 38 41 -43 -44 -46 47 -48 49 -50 0
x 1 2 -5 -6 10 -12 -14 -19 20 23 24 -25 32 -38 39 -41 -43 -46 0
x -2 4 5 -6 -8 9 -11 -14 -16 17 -19 -20 -21 -22 24 -25 -26 28 -29 -30 -31 -32 -35 36 37 -38 42 -46 -47 48 50 0
x -1 -2 -3 4 5 -6 -7 -9 11 14 -15 18 -25 26 29 32 33 34 36 37 39 40 42 -43 -44 -45 47 -49 -50 0
x 1 2 4 10 -11 13 15 -16 -17 18 -19 25 26 27 28 -29 30 32 33 -35 -37 -38 -39 -43 44 46 47 49 50 0
x 2 5 -6 10 -11 12 -14 17 -19 20 -26 -27 28 29 33 -36 37 44 -47 48 49 50 0
x -1 -5 6 8 -9 -11 12 -13 15 -17 -19 20 -21 22 -23 -24 27 -28 29 31 -33 -34 35 39 40 41 -42 43 -45 -47 48 -49 50 0
g -10